
  12    4
  10   10   10   10

   0   0   0   0   0   5 2 4 5 6 11 
   3  10  10  10  10   1 3 
   5  10  10  10  10   2 8 7 
   5  10  10  10  10   2 10 8 
   5  10  10  10  10   1 9 
   9  10  10  10  10   1 7 
   5  10  10  10  10   1 12
  10  10  10  10  10   1 12
   7  10  10  10  10   1 12
   9  10  10  10  10   1 12
   9  10  10  10  10   1 12
   0   0   0   0   0   0 
